data/mip_solutions/furman_sahinidis/transshipment/6sp-cf1_cplex.sol
Elapsed time: 0.0299940109253
Nodes explored: 0
Upper bound: 6.0
Lower bound: 6.0
y[0,0]=1
y[0,1]=1
y[1,1]=1
y[1,2]=1
y[2,0]=1
y[2,3]=1
q[0,0,1]=360.0
q[0,0,2]=450.0
q[0,0,3]=250.0
q[0,0,4]=360.0
q[0,1,2]=80.0
q[1,1,2]=220.0
q[1,1,3]=500.0
q[1,2,2]=80.0
q[1,2,3]=400.0
q[2,0,3]=200.0
q[2,3,4]=440.0
r[0,2]=140.0
r[0,3]=110.0
r[0,4]=360.0
r[1,3]=300.0
r[2,4]=200.0
